Using license file /home/benedond/gurobi.lic
Using gurobi.env file
Set parameter Threads to value 1
Academic license - for non-commercial use only
Changed value of parameter TimeLimit to 300.0
   Prev: inf  Min: 0.0  Max: inf  Default: inf
Gurobi Optimizer version 9.0.1 build v9.0.1rc0 (linux64)
Optimize a model with 1004 rows, 903 columns and 4281 nonzeros
Model fingerprint: 0x44fb4896
Variable types: 40 continuous, 863 integer (863 binary)
Coefficient statistics:
  Matrix range     [2e-01, 5e+02]
  Objective range  [3e-02, 5e-01]
  Bounds range     [1e+00, 1e+00]
  RHS range        [1e+00, 1e+03]
Presolve removed 87 rows and 55 columns
Presolve time: 0.03s
Presolved: 917 rows, 848 columns, 4007 nonzeros
Variable types: 39 continuous, 809 integer (809 binary)

Root relaxation: objective 2.143215e+00, 719 iterations, 0.02 seconds

    Nodes    |    Current Node    |     Objective Bounds      |     Work
 Expl Unexpl |  Obj  Depth IntInf | Incumbent    BestBd   Gap | It/Node Time

     0     0    2.14322    0  108          -    2.14322      -     -    0s
     0     0    2.33558    0   73          -    2.33558      -     -    0s
H    0     0                       3.2945588    2.33558  29.1%     -    0s
H    0     0                       3.2310392    2.33558  27.7%     -    0s
     0     0    2.34382    0   76    3.23104    2.34382  27.5%     -    0s
     0     0    2.45601    0   69    3.23104    2.45601  24.0%     -    0s
     0     0    2.46613    0   76    3.23104    2.46613  23.7%     -    0s
     0     0    2.46613    0   76    3.23104    2.46613  23.7%     -    0s
     0     0    2.55331    0  130    3.23104    2.55331  21.0%     -    0s
     0     0    2.57127    0  107    3.23104    2.57127  20.4%     -    0s
     0     0    2.57622    0  100    3.23104    2.57622  20.3%     -    0s
     0     0    2.57764    0   90    3.23104    2.57764  20.2%     -    0s
     0     0    2.57771    0  100    3.23104    2.57771  20.2%     -    0s
     0     0    2.60113    0   91    3.23104    2.60113  19.5%     -    0s
     0     0    2.60980    0  114    3.23104    2.60980  19.2%     -    0s
     0     0    2.61138    0  108    3.23104    2.61138  19.2%     -    0s
     0     0    2.61193    0  126    3.23104    2.61193  19.2%     -    0s
     0     0    2.61234    0  124    3.23104    2.61234  19.1%     -    0s
     0     0    2.61237    0  126    3.23104    2.61237  19.1%     -    0s
     0     0    2.61799    0  127    3.23104    2.61799  19.0%     -    0s
     0     0    2.62025    0  133    3.23104    2.62025  18.9%     -    0s
     0     0    2.62035    0  135    3.23104    2.62035  18.9%     -    0s
     0     0    2.62979    0  113    3.23104    2.62979  18.6%     -    0s
     0     0    2.63328    0  137    3.23104    2.63328  18.5%     -    0s
     0     0    2.63416    0  136    3.23104    2.63416  18.5%     -    0s
     0     0    2.63421    0  138    3.23104    2.63421  18.5%     -    0s
     0     0    2.64532    0   99    3.23104    2.64532  18.1%     -    0s
     0     0    2.64737    0  112    3.23104    2.64737  18.1%     -    0s
     0     0    2.64754    0  112    3.23104    2.64754  18.1%     -    0s
     0     0    2.65694    0  116    3.23104    2.65694  17.8%     -    0s
     0     0    2.65934    0  115    3.23104    2.65934  17.7%     -    0s
     0     0    2.65956    0  110    3.23104    2.65956  17.7%     -    0s
     0     0    2.66461    0  116    3.23104    2.66461  17.5%     -    0s
     0     0    2.66542    0  120    3.23104    2.66542  17.5%     -    0s
     0     0    2.66580    0  116    3.23104    2.66580  17.5%     -    0s
     0     0    2.67045    0  133    3.23104    2.67045  17.4%     -    0s
     0     0    2.67152    0  117    3.23104    2.67152  17.3%     -    0s
     0     0    2.67179    0  122    3.23104    2.67179  17.3%     -    0s
     0     0    2.67505    0  108    3.23104    2.67505  17.2%     -    0s
     0     0    2.67674    0  114    3.23104    2.67674  17.2%     -    0s
     0     0    2.67703    0  123    3.23104    2.67703  17.1%     -    0s
     0     0    2.67936    0  158    3.23104    2.67936  17.1%     -    0s
H    0     0                       3.2230392    2.67936  16.9%     -    0s
     0     0    2.68027    0  150    3.22304    2.68027  16.8%     -    0s
     0     0    2.68039    0  155    3.22304    2.68039  16.8%     -    0s
     0     0    2.68155    0  121    3.22304    2.68155  16.8%     -    0s
H    0     0                       3.1872549    2.68155  15.9%     -    0s
     0     0    2.68257    0  133    3.18725    2.68257  15.8%     -    0s
     0     0    2.68265    0  127    3.18725    2.68265  15.8%     -    0s
     0     0    2.68352    0  114    3.18725    2.68352  15.8%     -    0s
     0     0    2.68352    0  113    3.18725    2.68352  15.8%     -    0s
     0     2    2.68368    0  112    3.18725    2.68368  15.8%     -    0s
H   27    27                       3.1446372    2.70272  14.1%   117    1s
H   54    45                       3.1169117    2.70272  13.3%  76.6    1s
*  426   256              11       3.0683333    2.74447  10.6%  53.7    2s
*  429   242              13       3.0560588    2.74447  10.2%  53.3    2s
H  458   190                       2.9912451    2.75493  7.90%  53.8    2s
H  532   207                       2.9533333    2.76920  6.23%  52.8    4s
   535   211    2.76920   11  102    2.95333    2.76920  6.23%  60.3    5s
H 1302   125                       2.9533333    2.86029  3.15%  68.0    9s
H 1416   109                       2.9533330    2.88228  2.41%  66.3    9s
  1680    25    2.93958   16   80    2.95333    2.92466  0.97%  62.4   10s

Cutting planes:
  Gomory: 1
  Cover: 20
  Implied bound: 10
  Clique: 10
  MIR: 74
  StrongCG: 2
  Flow cover: 111
  RLT: 4
  Relax-and-lift: 173

Explored 1712 nodes (110679 simplex iterations) in 10.05 seconds
Thread count was 1 (of 4 available processors)

Solution count 9: 2.95333 2.99125 3.05606 ... 3.29456

Optimal solution found (tolerance 1.00e-04)
Best objective 2.953333043031e+00, best bound 2.953333043031e+00, gap 0.0000%
